p cnf 15 39
1 3 0
-2 3 0
-1 2 -3 0
3 -6 0
4 -6 0
-5 -6 0
-3 -4 5 6 0
6 7 0
-3 7 0
3 -6 -7 0
7 -9 0
-8 -9 0
-7 8 9 0
-8 -10 0
5 -10 0
-5 8 10 0
5 -11 0
-9 -11 0
10 -11 0
-5 9 -10 11 0
-5 12 0
-9 12 0
10 12 0
5 9 -10 -12 0
9 -13 0
-12 -13 0
-9 12 13 0
5 14 0
-10 14 0
-13 14 0
-5 10 13 -14 0
11 -15 0
-12 -15 0
-11 12 15 0
12 0
14 0
10 0
11 0
15 0
c main::1::a!0@1#1 1
c main::1::b!0@1#1 4
c main::1::c!0@1#1 8
c main::1::d!0@1#1 2
c main::1::e!0@1#1 5
c main::1::a!0@1#2 3
c main::1::b!0@1#2 6
c main::1::b!0@1#3 9
c main::1::c!0@1#2 10
c main::1::d!0@1#2 11
c main::1::a!0@1#3 12
c main::1::b!0@1#4 14
c main::1::e!0@1#2 15
